50
[5,6,7,8,9,10,11,12,13,14,15,16,17,18,19,20,21,22,23,24,25,26,27,28,29,30,31,32,33,34,35,36,37,38,39,40]
[19,15,11,22,22,24,23,20,15,18,14,23,24,27,29,17,24,18,22,23,27,24,19,23,29,19,14,23,23,21,18,17,22,21,16,24]
